import DataTypes.dzn;
import ISafetyCheck.dzn;
import Resolver.dzn;
import Sensors.dzn;

component GripArmStrengthCheck {
	requires IGripArmStrengthSensor iGripArmStrengthSensor;
	provides ISafetyCheck iGripArmStrengthCheck;
	requires ISafetyCheck iNext;
	requires injected IResolver iResolver;

	behaviour {
		Behavior and_safety_states(Behavior current, Behavior next) {
			if(current == Behavior.Unsafe || next == Behavior.Unsafe) {
				return Behavior.Unsafe;
			}
			return Behavior.Safe;
		}

		on iGripArmStrengthCheck.do_check(): {
			Behavior currSafetyState = Behavior.Safe;
			// TODO: Let the data go through the retriever here.
			iGripArmStrengthSensor.retrieve_arm_str();
			currSafetyState = iResolver.resolve_arm_str();
			
			Behavior nextSafetyState = iNext.do_check();
			Behavior res = and_safety_states(currSafetyState, nextSafetyState); 
			reply(res);
		}
	}
}

//requirement AnyUnsafe {
//	provides IRequirement iGripArmStrengthCheck;
//	// component
//	on GripArmStrengthCheck;
//
//	behaviour {
//		Behavior b1;
//		Behavior b2;
//		on do_check(): {
//			b1 = iResolver.resolve_arm_str();
//			b2 = next.do_check();
//			// If one of the two is Behavior.Unsafe
//			if (b1 == Behavior.Unsafe || b2 == Behavior.Unsafe) {
//				reply(Behavior.Unsafe);
//			} else {
//				reply(Behavior.Safe);
//			}
//		}
//	}
//}
